maximize
obj: 278 x_1_ - 207 x_2_ + 463 x_3_ - 158 x_4_ + 339 x_5_ - 239 x_6_ + 642 x_7_ - 242 x_8_ - 43 x_9_ - 157 x_10_ + 356 x_11_ - 117 x_12_ + 406 x_13_ + 466 x_14_ + 331 x_15_ + 275 x_16_ - 252 x_17_ + 363 x_18_ + 343 x_19_ - 144 x_20_ - 144 x_21_ + 587 x_22_ + 576 x_23_ + 356 x_24_ - 51 x_25_ + 315 x_26_ - 124 x_27_ - 60 x_28_ - 58 x_29_ - 98 x_30_ + 494 x_31_ - 78 x_32_ - 90 x_33_ - 256 x_34_ + 414 x_35_ + 568 x_36_ + 442 x_37_ - 216 x_38_ + 317 x_39_ - 200 x_40_ + 569 x_41_ + 351 x_42_ + 445 x_43_ + 528 x_44_ + 504 x_45_ + 622 x_46_ - 14 x_47_ - 85 x_48_ + 308 x_49_ - 173 x_50_ + 373 x_51_ - 114 x_52_ - 134 x_53_ + 279 x_54_ - 75 x_55_ + 369 x_56_ - 191 x_57_ - 61 x_58_ - 12 x_59_ - 145 x_60_ - 60 x_61_ + 401 x_62_ + 315 x_63_ + 306 x_64_ + 433 x_65_ + 365 x_66_ + 368 x_67_ + 584 x_68_ - 50 x_69_ - 79 x_70_ - 70 x_71_ - 259 x_72_ - 1 x_73_ + 277 x_74_ + 320 x_75_ + 563 x_76_ - 81 x_77_ - 178 x_78_ + 404 x_79_ - 199 x_80_ - 21 x_81_ - 221 x_82_ - 124 x_83_ - 188 x_84_ + 447 x_85_ - 5 x_86_ - 162 x_87_ + 337 x_88_ + 296 x_89_ + 408 x_90_ + 350 x_91_ - 271 x_92_ + 479 x_93_ + 443 x_94_ + 452 x_95_ + 500 x_96_ - 103 x_97_ - 54 x_98_ - 113 x_99_ - 216 x_100_ + 1000 s_1_ + 1000 s_2_ + 1000 s_3_ + 1000 s_4_ + 1000 s_5_ + 1000 s_6_ + 1000 s_7_ + 1000 s_8_ + 1000 s_9_ + 1000 s_10_ - 1000 ss_1_ - 1000 ss_2_ - 1000 ss_3_ - 1000 ss_4_ - 1000 ss_5_ - 1000 ss_6_ - 1000 ss_7_ - 1000 ss_8_ - 1000 ss_9_ - 1000 ss_10_
subject to
c11: 1 s_1_ + 478 x_1_ + 209 x_2_ + 549 x_3_ + 155 x_4_ + 805 x_5_ + 64 x_6_ + 528 x_7_ + 904 x_8_ + 832 x_9_ + 14 x_10_ + 606 x_11_ + 436 x_12_ + 221 x_13_ + 937 x_14_ + 477 x_15_ + 646 x_16_ + 472 x_17_ + 708 x_18_ + 678 x_19_ + 633 x_20_ + 7 x_21_ + 110 x_22_ + 435 x_23_ + 929 x_24_ + 925 x_25_ + 584 x_26_ + 556 x_27_ + 795 x_28_ + 435 x_29_ + 73 x_30_ + 934 x_31_ + 534 x_32_ + 355 x_33_ + 954 x_34_ + 834 x_35_ + 347 x_36_ + 730 x_37_ + 872 x_38_ + 407 x_39_ + 789 x_40_ + 968 x_41_ + 924 x_42_ + 519 x_43_ + 945 x_44_ + 704 x_45_ + 997 x_46_ + 866 x_47_ + 380 x_48_ + 248 x_49_ + 96 x_50_ + 476 x_51_ + 7 x_52_ + 752 x_53_ + 565 x_54_ + 799 x_55_ + 827 x_56_ + 99 x_57_ + 769 x_58_ + 9 x_59_ + 228 x_60_ + 590 x_61_ + 786 x_62_ + 355 x_63_ + 263 x_64_ + 955 x_65_ + 590 x_66_ + 255 x_67_ + 604 x_68_ + 989 x_69_ + 723 x_70_ + 191 x_71_ + 258 x_72_ + 664 x_73_ + 37 x_74_ + 805 x_75_ + 836 x_76_ + 552 x_77_ + 792 x_78_ + 86 x_79_ + 935 x_80_ + 711 x_81_ + 868 x_82_ + 373 x_83_ + 9 x_84_ + 635 x_85_ + 641 x_86_ + 441 x_87_ + 305 x_88_ + 669 x_89_ + 647 x_90_ + 686 x_91_ + 640 x_92_ + 625 x_93_ + 615 x_94_ + 165 x_95_ + 491 x_96_ + 934 x_97_ + 6 x_98_ + 34 x_99_ + 717 x_100_ <= 13653
c12: 1 s_2_ + 598 x_1_ + 280 x_2_ + 441 x_3_ + 103 x_4_ + 594 x_5_ + 278 x_6_ + 272 x_7_ + 703 x_8_ + 781 x_9_ + 701 x_10_ + 338 x_11_ + 273 x_12_ + 821 x_13_ + 798 x_14_ + 801 x_15_ + 376 x_16_ + 712 x_17_ + 164 x_18_ + 937 x_19_ + 602 x_20_ + 156 x_21_ + 114 x_22_ + 220 x_23_ + 343 x_24_ + 749 x_25_ + 713 x_26_ + 121 x_27_ + 240 x_28_ + 21 x_29_ + 26 x_30_ + 580 x_31_ + 760 x_32_ + 29 x_33_ + 295 x_34_ + 516 x_35_ + 707 x_36_ + 429 x_37_ + 209 x_38_ + 375 x_39_ + 112 x_40_ + 397 x_41_ + 809 x_42_ + 782 x_43_ + 712 x_44_ + 306 x_45_ + 529 x_46_ + 375 x_47_ + 212 x_48_ + 335 x_49_ + 510 x_50_ + 662 x_51_ + 16 x_52_ + 457 x_53_ + 699 x_54_ + 123 x_55_ + 393 x_56_ + 160 x_57_ + 710 x_58_ + 90 x_59_ + 896 x_60_ + 246 x_61_ + 409 x_62_ + 877 x_63_ + 475 x_64_ + 674 x_65_ + 1 x_66_ + 274 x_67_ + 584 x_68_ + 450 x_69_ + 94 x_70_ + 915 x_71_ + 841 x_72_ + 25 x_73_ + 599 x_74_ + 377 x_75_ + 934 x_76_ + 270 x_77_ + 634 x_78_ + 752 x_79_ + 669 x_80_ + 704 x_81_ + 838 x_82_ + 953 x_83_ + 970 x_84_ + 467 x_85_ + 329 x_86_ + 787 x_87_ + 54 x_88_ + 516 x_89_ + 561 x_90_ + 358 x_91_ + 433 x_92_ + 715 x_93_ + 11 x_94_ + 860 x_95_ + 888 x_96_ + 613 x_97_ + 949 x_98_ + 296 x_99_ + 300 x_100_ <= 12041
c13: 1 s_3_ + 7 x_1_ + 60 x_2_ + 644 x_3_ + 944 x_4_ + 50 x_5_ + 492 x_6_ + 580 x_7_ + 209 x_8_ + 353 x_9_ + 323 x_10_ + 308 x_11_ + 875 x_12_ + 780 x_13_ + 324 x_14_ + 178 x_15_ + 479 x_16_ + 226 x_17_ + 637 x_18_ + 251 x_19_ + 870 x_20_ + 392 x_21_ + 1000 x_22_ + 782 x_23_ + 652 x_24_ + 371 x_25_ + 929 x_26_ + 274 x_27_ + 693 x_28_ + 919 x_29_ + 12 x_30_ + 737 x_31_ + 321 x_32_ + 758 x_33_ + 707 x_34_ + 122 x_35_ + 383 x_36_ + 775 x_37_ + 538 x_38_ + 111 x_39_ + 170 x_40_ + 500 x_41_ + 740 x_42_ + 995 x_43_ + 630 x_44_ + 210 x_45_ + 697 x_46_ + 200 x_47_ + 688 x_48_ + 542 x_49_ + 654 x_50_ + 668 x_51_ + 57 x_52_ + 820 x_53_ + 315 x_54_ + 946 x_55_ + 17 x_56_ + 695 x_57_ + 354 x_58_ + 47 x_59_ + 99 x_60_ + 47 x_61_ + 541 x_62_ + 939 x_63_ + 933 x_64_ + 965 x_65_ + 500 x_66_ + 92 x_67_ + 396 x_68_ + 192 x_69_ + 497 x_70_ + 185 x_71_ + 41 x_72_ + 262 x_73_ + 196 x_74_ + 180 x_75_ + 781 x_76_ + 562 x_77_ + 773 x_78_ + 917 x_79_ + 798 x_80_ + 63 x_81_ + 813 x_82_ + 837 x_83_ + 575 x_84_ + 288 x_85_ + 43 x_86_ + 465 x_87_ + 280 x_88_ + 773 x_89_ + 951 x_90_ + 987 x_91_ + 523 x_92_ + 445 x_93_ + 208 x_94_ + 47 x_95_ + 553 x_96_ + 662 x_97_ + 606 x_98_ + 411 x_99_ + 200 x_100_ <= 12159
c14: 1 s_4_ + 518 x_1_ + 448 x_2_ + 516 x_3_ + 406 x_4_ + 727 x_5_ + 939 x_6_ + 575 x_7_ + 82 x_8_ + 628 x_9_ + 78 x_10_ + 950 x_11_ + 135 x_12_ + 510 x_13_ + 481 x_14_ + 671 x_15_ + 359 x_16_ + 436 x_17_ + 575 x_18_ + 916 x_19_ + 89 x_20_ + 999 x_21_ + 15 x_22_ + 245 x_23_ + 891 x_24_ + 713 x_25_ + 470 x_26_ + 469 x_27_ + 654 x_28_ + 489 x_29_ + 826 x_30_ + 582 x_31_ + 451 x_32_ + 887 x_33_ + 559 x_34_ + 613 x_35_ + 441 x_36_ + 591 x_37_ + 314 x_38_ + 78 x_39_ + 564 x_40_ + 120 x_41_ + 463 x_42_ + 190 x_43_ + 388 x_44_ + 674 x_45_ + 426 x_46_ + 498 x_47_ + 859 x_48_ + 665 x_49_ + 15 x_50_ + 443 x_51_ + 916 x_52_ + 299 x_53_ + 779 x_54_ + 158 x_55_ + 804 x_56_ + 211 x_57_ + 567 x_58_ + 572 x_59_ + 602 x_60_ + 620 x_61_ + 127 x_62_ + 222 x_63_ + 317 x_64_ + 893 x_65_ + 943 x_66_ + 951 x_67_ + 450 x_68_ + 855 x_69_ + 136 x_70_ + 927 x_71_ + 234 x_72_ + 974 x_73_ + 93 x_74_ + 555 x_75_ + 69 x_76_ + 651 x_77_ + 817 x_78_ + 990 x_79_ + 658 x_80_ + 758 x_81_ + 324 x_82_ + 149 x_83_ + 361 x_84_ + 747 x_85_ + 338 x_86_ + 405 x_87_ + 374 x_88_ + 916 x_89_ + 57 x_90_ + 525 x_91_ + 358 x_92_ + 840 x_93_ + 182 x_94_ + 827 x_95_ + 406 x_96_ + 583 x_97_ + 335 x_98_ + 32 x_99_ + 793 x_100_ <= 12833
c15: 1 s_5_ + 821 x_1_ + 390 x_2_ + 11 x_3_ + 542 x_4_ + 279 x_5_ + 386 x_6_ + 694 x_7_ + 586 x_8_ + 377 x_9_ + 757 x_10_ + 234 x_11_ + 691 x_12_ + 491 x_13_ + 710 x_14_ + 171 x_15_ + 80 x_16_ + 183 x_17_ + 28 x_18_ + 315 x_19_ + 457 x_20_ + 331 x_21_ + 751 x_22_ + 992 x_23_ + 706 x_24_ + 238 x_25_ + 758 x_26_ + 309 x_27_ + 606 x_28_ + 389 x_29_ + 952 x_30_ + 393 x_31_ + 958 x_32_ + 867 x_33_ + 923 x_34_ + 97 x_35_ + 678 x_36_ + 114 x_37_ + 542 x_38_ + 518 x_39_ + 867 x_40_ + 92 x_41_ + 519 x_42_ + 199 x_43_ + 496 x_44_ + 792 x_45_ + 932 x_46_ + 141 x_47_ + 393 x_48_ + 517 x_49_ + 282 x_50_ + 96 x_51_ + 813 x_52_ + 576 x_53_ + 238 x_54_ + 900 x_55_ + 326 x_56_ + 973 x_57_ + 863 x_58_ + 923 x_59_ + 477 x_60_ + 39 x_61_ + 329 x_62_ + 761 x_63_ + 792 x_64_ + 208 x_65_ + 288 x_66_ + 835 x_67_ + 580 x_68_ + 479 x_69_ + 80 x_70_ + 973 x_71_ + 40 x_72_ + 645 x_73_ + 542 x_74_ + 197 x_75_ + 423 x_76_ + 349 x_77_ + 534 x_78_ + 722 x_79_ + 907 x_80_ + 503 x_81_ + 235 x_82_ + 604 x_83_ + 18 x_84_ + 531 x_85_ + 969 x_86_ + 906 x_87_ + 954 x_88_ + 277 x_89_ + 602 x_90_ + 342 x_91_ + 91 x_92_ + 877 x_93_ + 786 x_94_ + 434 x_95_ + 737 x_96_ + 132 x_97_ + 204 x_98_ + 750 x_99_ + 390 x_100_ <= 12701
c16: 1 s_6_ + 830 x_1_ + 72 x_2_ + 961 x_3_ + 289 x_4_ + 882 x_5_ + 131 x_6_ + 723 x_7_ + 265 x_8_ + 467 x_9_ + 613 x_10_ + 307 x_11_ + 896 x_12_ + 427 x_13_ + 424 x_14_ + 38 x_15_ + 320 x_16_ + 228 x_17_ + 333 x_18_ + 234 x_19_ + 222 x_20_ + 687 x_21_ + 783 x_22_ + 350 x_23_ + 960 x_24_ + 472 x_25_ + 196 x_26_ + 202 x_27_ + 592 x_28_ + 231 x_29_ + 255 x_30_ + 789 x_31_ + 461 x_32_ + 544 x_33_ + 71 x_34_ + 954 x_35_ + 622 x_36_ + 29 x_37_ + 61 x_38_ + 618 x_39_ + 790 x_40_ + 208 x_41_ + 48 x_42_ + 552 x_43_ + 687 x_44_ + 723 x_45_ + 552 x_46_ + 783 x_47_ + 942 x_48_ + 924 x_49_ + 348 x_50_ + 300 x_51_ + 586 x_52_ + 577 x_53_ + 380 x_54_ + 378 x_55_ + 876 x_56_ + 79 x_57_ + 678 x_58_ + 585 x_59_ + 980 x_60_ + 170 x_61_ + 266 x_62_ + 470 x_63_ + 426 x_64_ + 987 x_65_ + 716 x_66_ + 385 x_67_ + 175 x_68_ + 381 x_69_ + 508 x_70_ + 370 x_71_ + 279 x_72_ + 790 x_73_ + 503 x_74_ + 145 x_75_ + 967 x_76_ + 54 x_77_ + 724 x_78_ + 798 x_79_ + 622 x_80_ + 25 x_81_ + 278 x_82_ + 319 x_83_ + 93 x_84_ + 629 x_85_ + 236 x_86_ + 203 x_87_ + 70 x_88_ + 410 x_89_ + 441 x_90_ + 905 x_91_ + 655 x_92_ + 452 x_93_ + 924 x_94_ + 730 x_95_ + 355 x_96_ + 681 x_97_ + 664 x_98_ + 950 x_99_ + 212 x_100_ <= 12121
c17: 1 s_7_ + 2 x_1_ + 281 x_2_ + 882 x_3_ + 914 x_4_ + 652 x_5_ + 659 x_6_ + 733 x_7_ + 553 x_8_ + 693 x_9_ + 747 x_10_ + 997 x_11_ + 535 x_12_ + 701 x_13_ + 170 x_14_ + 236 x_15_ + 921 x_16_ + 130 x_17_ + 428 x_18_ + 553 x_19_ + 520 x_20_ + 633 x_21_ + 941 x_22_ + 440 x_23_ + 959 x_24_ + 349 x_25_ + 318 x_26_ + 153 x_27_ + 529 x_28_ + 601 x_29_ + 122 x_30_ + 145 x_31_ + 820 x_32_ + 101 x_33_ + 660 x_34_ + 867 x_35_ + 928 x_36_ + 923 x_37_ + 52 x_38_ + 533 x_39_ + 550 x_40_ + 750 x_41_ + 525 x_42_ + 98 x_43_ + 600 x_44_ + 271 x_45_ + 624 x_46_ + 794 x_47_ + 69 x_48_ + 368 x_49_ + 134 x_50_ + 963 x_51_ + 641 x_52_ + 68 x_53_ + 952 x_54_ + 270 x_55_ + 597 x_56_ + 277 x_57_ + 7 x_58_ + 666 x_59_ + 508 x_60_ + 179 x_61_ + 83 x_62_ + 425 x_63_ + 681 x_64_ + 653 x_65_ + 788 x_66_ + 989 x_67_ + 993 x_68_ + 649 x_69_ + 929 x_70_ + 952 x_71_ + 492 x_72_ + 643 x_73_ + 203 x_74_ + 773 x_75_ + 715 x_76_ + 512 x_77_ + 25 x_78_ + 698 x_79_ + 432 x_80_ + 775 x_81_ + 234 x_82_ + 154 x_83_ + 360 x_84_ + 28 x_85_ + 268 x_86_ + 205 x_87_ + 98 x_88_ + 420 x_89_ + 416 x_90_ + 846 x_91_ + 292 x_92_ + 304 x_93_ + 90 x_94_ + 512 x_95_ + 833 x_96_ + 705 x_97_ + 977 x_98_ + 255 x_99_ + 525 x_100_ <= 12806
c18: 1 s_8_ + 872 x_1_ + 394 x_2_ + 735 x_3_ + 740 x_4_ + 91 x_5_ + 21 x_6_ + 272 x_7_ + 518 x_8_ + 886 x_9_ + 540 x_10_ + 452 x_11_ + 964 x_12_ + 319 x_13_ + 7 x_14_ + 958 x_15_ + 350 x_16_ + 976 x_17_ + 1 x_18_ + 851 x_19_ + 652 x_20_ + 802 x_21_ + 136 x_22_ + 685 x_23_ + 89 x_24_ + 14 x_25_ + 935 x_26_ + 387 x_27_ + 678 x_28_ + 915 x_29_ + 243 x_30_ + 322 x_31_ + 916 x_32_ + 783 x_33_ + 32 x_34_ + 818 x_35_ + 943 x_36_ + 654 x_37_ + 457 x_38_ + 257 x_39_ + 322 x_40_ + 315 x_41_ + 426 x_42_ + 520 x_43_ + 743 x_44_ + 273 x_45_ + 901 x_46_ + 855 x_47_ + 956 x_48_ + 368 x_49_ + 510 x_50_ + 777 x_51_ + 972 x_52_ + 752 x_53_ + 463 x_54_ + 518 x_55_ + 155 x_56_ + 343 x_57_ + 499 x_58_ + 837 x_59_ + 206 x_60_ + 707 x_61_ + 468 x_62_ + 494 x_63_ + 998 x_64_ + 30 x_65_ + 746 x_66_ + 401 x_67_ + 715 x_68_ + 964 x_69_ + 322 x_70_ + 273 x_71_ + 952 x_72_ + 638 x_73_ + 882 x_74_ + 933 x_75_ + 674 x_76_ + 284 x_77_ + 765 x_78_ + 436 x_79_ + 264 x_80_ + 812 x_81_ + 476 x_82_ + 582 x_83_ + 434 x_84_ + 437 x_85_ + 558 x_86_ + 795 x_87_ + 881 x_88_ + 242 x_89_ + 909 x_90_ + 68 x_91_ + 539 x_92_ + 879 x_93_ + 465 x_94_ + 651 x_95_ + 114 x_96_ + 253 x_97_ + 993 x_98_ + 483 x_99_ + 657 x_100_ <= 13888
c19: 1 s_9_ + 957 x_1_ + 893 x_2_ + 975 x_3_ + 742 x_4_ + 687 x_5_ + 732 x_6_ + 916 x_7_ + 790 x_8_ + 232 x_9_ + 150 x_10_ + 942 x_11_ + 643 x_12_ + 908 x_13_ + 593 x_14_ + 363 x_15_ + 238 x_16_ + 97 x_17_ + 517 x_18_ + 913 x_19_ + 709 x_20_ + 119 x_21_ + 382 x_22_ + 625 x_23_ + 851 x_24_ + 233 x_25_ + 988 x_26_ + 624 x_27_ + 354 x_28_ + 708 x_29_ + 476 x_30_ + 793 x_31_ + 569 x_32_ + 642 x_33_ + 620 x_34_ + 436 x_35_ + 701 x_36_ + 214 x_37_ + 49 x_38_ + 261 x_39_ + 481 x_40_ + 909 x_41_ + 705 x_42_ + 724 x_43_ + 365 x_44_ + 409 x_45_ + 880 x_46_ + 480 x_47_ + 944 x_48_ + 276 x_49_ + 603 x_50_ + 851 x_51_ + 518 x_52_ + 70 x_53_ + 381 x_54_ + 243 x_55_ + 447 x_56_ + 479 x_57_ + 421 x_58_ + 590 x_59_ + 245 x_60_ + 644 x_61_ + 988 x_62_ + 555 x_63_ + 771 x_64_ + 634 x_65_ + 47 x_66_ + 72 x_67_ + 813 x_68_ + 891 x_69_ + 457 x_70_ + 487 x_71_ + 196 x_72_ + 875 x_73_ + 317 x_74_ + 552 x_75_ + 215 x_76_ + 521 x_77_ + 599 x_78_ + 324 x_79_ + 704 x_80_ + 591 x_81_ + 16 x_82_ + 999 x_83_ + 931 x_84_ + 880 x_85_ + 923 x_86_ + 995 x_87_ + 223 x_88_ + 563 x_89_ + 82 x_90_ + 372 x_91_ + 290 x_92_ + 764 x_93_ + 568 x_94_ + 792 x_95_ + 247 x_96_ + 317 x_97_ + 493 x_98_ + 714 x_99_ + 574 x_100_ <= 13915
c20: 1 s_10_ + 383 x_1_ + 363 x_2_ + 611 x_3_ + 279 x_4_ + 531 x_5_ + 739 x_6_ + 303 x_7_ + 183 x_8_ + 910 x_9_ + 102 x_10_ + 481 x_11_ + 30 x_12_ + 496 x_13_ + 53 x_14_ + 862 x_15_ + 782 x_16_ + 555 x_17_ + 807 x_18_ + 377 x_19_ + 203 x_20_ + 572 x_21_ + 926 x_22_ + 908 x_23_ + 739 x_24_ + 692 x_25_ + 808 x_26_ + 489 x_27_ + 804 x_28_ + 915 x_29_ + 70 x_30_ + 540 x_31_ + 456 x_32_ + 273 x_33_ + 727 x_34_ + 681 x_35_ + 666 x_36_ + 579 x_37_ + 658 x_38_ + 740 x_39_ + 542 x_40_ + 927 x_41_ + 989 x_42_ + 636 x_43_ + 26 x_44_ + 985 x_45_ + 249 x_46_ + 823 x_47_ + 645 x_48_ + 257 x_49_ + 617 x_50_ + 685 x_51_ + 235 x_52_ + 595 x_53_ + 607 x_54_ + 780 x_55_ + 582 x_56_ + 740 x_57_ + 853 x_58_ + 894 x_59_ + 612 x_60_ + 724 x_61_ + 899 x_62_ + 676 x_63_ + 371 x_64_ + 833 x_65_ + 526 x_66_ + 240 x_67_ + 885 x_68_ + 797 x_69_ + 162 x_70_ + 269 x_71_ + 700 x_72_ + 381 x_73_ + 413 x_74_ + 136 x_75_ + 923 x_76_ + 889 x_77_ + 772 x_78_ + 147 x_79_ + 74 x_80_ + 137 x_81_ + 258 x_82_ + 246 x_83_ + 527 x_84_ + 94 x_85_ + 413 x_86_ + 452 x_87_ + 485 x_88_ + 212 x_89_ + 630 x_90_ + 822 x_91_ + 662 x_92_ + 881 x_93_ + 731 x_94_ + 58 x_95_ + 743 x_96_ + 791 x_97_ + 287 x_98_ + 97 x_99_ + 56 x_100_ <= 13493
c1: 1 ss_1_ + 556 x_1_ + 736 x_2_ + 301 x_3_ + 111 x_4_ + 704 x_5_ + 408 x_6_ + 163 x_7_ + 315 x_8_ + 670 x_9_ + 457 x_10_ + 357 x_11_ + 916 x_12_ + 614 x_13_ + 60 x_14_ + 373 x_15_ + 182 x_16_ + 129 x_17_ + 767 x_18_ + 896 x_19_ + 178 x_20_ + 975 x_21_ + 226 x_22_ + 404 x_23_ + 833 x_24_ + 575 x_25_ + 340 x_26_ + 321 x_27_ + 580 x_28_ + 425 x_29_ + 955 x_30_ + 739 x_31_ + 473 x_32_ + 946 x_33_ + 666 x_34_ + 630 x_35_ + 462 x_36_ + 841 x_37_ + 2 x_38_ + 778 x_39_ + 714 x_40_ + 855 x_41_ + 768 x_42_ + 141 x_43_ + 847 x_44_ + 325 x_45_ + 765 x_46_ + 10 x_47_ + 162 x_48_ + 208 x_49_ + 981 x_50_ + 638 x_51_ + 184 x_52_ + 124 x_53_ + 910 x_54_ + 332 x_55_ + 634 x_56_ + 555 x_57_ + 55 x_58_ + 396 x_59_ + 23 x_60_ + 171 x_61_ + 310 x_62_ + 181 x_63_ + 378 x_64_ + 600 x_65_ + 742 x_66_ + 275 x_67_ + 601 x_68_ + 951 x_69_ + 731 x_70_ + 166 x_71_ + 659 x_72_ + 15 x_73_ + 230 x_74_ + 577 x_75_ + 807 x_76_ + 420 x_77_ + 862 x_78_ + 974 x_79_ + 991 x_80_ + 795 x_81_ + 938 x_82_ + 792 x_83_ + 647 x_84_ + 59 x_85_ + 991 x_86_ + 759 x_87_ + 627 x_88_ + 328 x_89_ + 902 x_90_ + 629 x_91_ + 510 x_92_ + 103 x_93_ + 788 x_94_ + 73 x_95_ + 379 x_96_ + 573 x_97_ + 783 x_98_ + 310 x_99_ + 38 x_100_ >= 12839
c2: 1 ss_2_ + 413 x_1_ + 494 x_2_ + 348 x_3_ + 63 x_4_ + 799 x_5_ + 352 x_6_ + 111 x_7_ + 889 x_8_ + 914 x_9_ + 312 x_10_ + 153 x_11_ + 287 x_12_ + 888 x_13_ + 424 x_14_ + 374 x_15_ + 650 x_16_ + 711 x_17_ + 816 x_18_ + 111 x_19_ + 774 x_20_ + 687 x_21_ + 279 x_22_ + 191 x_23_ + 181 x_24_ + 890 x_25_ + 484 x_26_ + 662 x_27_ + 995 x_28_ + 718 x_29_ + 533 x_30_ + 81 x_31_ + 879 x_32_ + 959 x_33_ + 989 x_34_ + 678 x_35_ + 424 x_36_ + 623 x_37_ + 986 x_38_ + 66 x_39_ + 449 x_40_ + 458 x_41_ + 515 x_42_ + 486 x_43_ + 726 x_44_ + 796 x_45_ + 398 x_46_ + 624 x_47_ + 182 x_48_ + 153 x_49_ + 272 x_50_ + 23 x_51_ + 598 x_52_ + 392 x_53_ + 154 x_54_ + 253 x_55_ + 691 x_56_ + 849 x_57_ + 842 x_58_ + 414 x_59_ + 986 x_60_ + 189 x_61_ + 41 x_62_ + 786 x_63_ + 540 x_64_ + 227 x_65_ + 14 x_66_ + 608 x_67_ + 125 x_68_ + 948 x_69_ + 638 x_70_ + 256 x_71_ + 555 x_72_ + 60 x_73_ + 673 x_74_ + 157 x_75_ + 75 x_76_ + 495 x_77_ + 829 x_78_ + 687 x_79_ + 438 x_80_ + 432 x_81_ + 476 x_82_ + 101 x_83_ + 986 x_84_ + 350 x_85_ + 733 x_86_ + 261 x_87_ + 409 x_88_ + 956 x_89_ + 615 x_90_ + 463 x_91_ + 265 x_92_ + 182 x_93_ + 989 x_94_ + 616 x_95_ + 194 x_96_ + 959 x_97_ + 842 x_98_ + 223 x_99_ + 968 x_100_ >= 12703
c3: 1 ss_3_ + 907 x_1_ + 158 x_2_ + 440 x_3_ + 75 x_4_ + 936 x_5_ + 753 x_6_ + 488 x_7_ + 475 x_8_ + 464 x_9_ + 485 x_10_ + 254 x_11_ + 548 x_12_ + 227 x_13_ + 888 x_14_ + 82 x_15_ + 292 x_16_ + 717 x_17_ + 235 x_18_ + 519 x_19_ + 937 x_20_ + 599 x_21_ + 362 x_22_ + 998 x_23_ + 32 x_24_ + 618 x_25_ + 944 x_26_ + 860 x_27_ + 499 x_28_ + 231 x_29_ + 121 x_30_ + 876 x_31_ + 938 x_32_ + 746 x_33_ + 360 x_34_ + 46 x_35_ + 818 x_36_ + 6 x_37_ + 24 x_38_ + 749 x_39_ + 906 x_40_ + 104 x_41_ + 680 x_42_ + 220 x_43_ + 122 x_44_ + 231 x_45_ + 897 x_46_ + 782 x_47_ + 947 x_48_ + 566 x_49_ + 733 x_50_ + 673 x_51_ + 96 x_52_ + 589 x_53_ + 279 x_54_ + 10 x_55_ + 976 x_56_ + 981 x_57_ + 504 x_58_ + 635 x_59_ + 386 x_60_ + 93 x_61_ + 470 x_62_ + 16 x_63_ + 274 x_64_ + 418 x_65_ + 716 x_66_ + 568 x_67_ + 160 x_68_ + 76 x_69_ + 413 x_70_ + 458 x_71_ + 573 x_72_ + 863 x_73_ + 885 x_74_ + 150 x_75_ + 185 x_76_ + 117 x_77_ + 448 x_78_ + 783 x_79_ + 820 x_80_ + 72 x_81_ + 325 x_82_ + 82 x_83_ + 329 x_84_ + 881 x_85_ + 842 x_86_ + 686 x_87_ + 866 x_88_ + 461 x_89_ + 949 x_90_ + 138 x_91_ + 492 x_92_ + 253 x_93_ + 608 x_94_ + 240 x_95_ + 162 x_96_ + 690 x_97_ + 255 x_98_ + 968 x_99_ + 431 x_100_ >= 12310
c4: 1 ss_4_ + 547 x_1_ + 669 x_2_ + 623 x_3_ + 859 x_4_ + 509 x_5_ + 351 x_6_ + 25 x_7_ + 264 x_8_ + 581 x_9_ + 285 x_10_ + 802 x_11_ + 287 x_12_ + 674 x_13_ + 733 x_14_ + 956 x_15_ + 829 x_16_ + 902 x_17_ + 70 x_18_ + 878 x_19_ + 900 x_20_ + 582 x_21_ + 49 x_22_ + 156 x_23_ + 99 x_24_ + 145 x_25_ + 303 x_26_ + 257 x_27_ + 915 x_28_ + 684 x_29_ + 217 x_30_ + 532 x_31_ + 601 x_32_ + 566 x_33_ + 824 x_34_ + 606 x_35_ + 418 x_36_ + 153 x_37_ + 701 x_38_ + 402 x_39_ + 820 x_40_ + 770 x_41_ + 698 x_42_ + 370 x_43_ + 378 x_44_ + 566 x_45_ + 13 x_46_ + 385 x_47_ + 341 x_48_ + 462 x_49_ + 91 x_50_ + 789 x_51_ + 582 x_52_ + 683 x_53_ + 578 x_54_ + 25 x_55_ + 95 x_56_ + 578 x_57_ + 209 x_58_ + 99 x_59_ + 34 x_60_ + 768 x_61_ + 187 x_62_ + 49 x_63_ + 292 x_64_ + 163 x_65_ + 303 x_66_ + 915 x_67_ + 856 x_68_ + 318 x_69_ + 754 x_70_ + 168 x_71_ + 634 x_72_ + 48 x_73_ + 478 x_74_ + 637 x_75_ + 519 x_76_ + 990 x_77_ + 849 x_78_ + 295 x_79_ + 913 x_80_ + 472 x_81_ + 751 x_82_ + 553 x_83_ + 271 x_84_ + 579 x_85_ + 190 x_86_ + 492 x_87_ + 468 x_88_ + 570 x_89_ + 1 x_90_ + 576 x_91_ + 147 x_92_ + 477 x_93_ + 90 x_94_ + 997 x_95_ + 444 x_96_ + 523 x_97_ + 866 x_98_ + 94 x_99_ + 313 x_100_ >= 11883
c5: 1 ss_5_ + 599 x_1_ + 627 x_2_ + 55 x_3_ + 599 x_4_ + 472 x_5_ + 946 x_6_ + 359 x_7_ + 87 x_8_ + 150 x_9_ + 58 x_10_ + 885 x_11_ + 125 x_12_ + 318 x_13_ + 647 x_14_ + 47 x_15_ + 462 x_16_ + 572 x_17_ + 361 x_18_ + 464 x_19_ + 533 x_20_ + 1 x_21_ + 323 x_22_ + 581 x_23_ + 159 x_24_ + 702 x_25_ + 251 x_26_ + 537 x_27_ + 675 x_28_ + 970 x_29_ + 528 x_30_ + 29 x_31_ + 430 x_32_ + 599 x_33_ + 314 x_34_ + 877 x_35_ + 115 x_36_ + 451 x_37_ + 494 x_38_ + 212 x_39_ + 178 x_40_ + 251 x_41_ + 770 x_42_ + 580 x_43_ + 80 x_44_ + 379 x_45_ + 508 x_46_ + 748 x_47_ + 41 x_48_ + 87 x_49_ + 658 x_50_ + 426 x_51_ + 7 x_52_ + 904 x_53_ + 266 x_54_ + 984 x_55_ + 726 x_56_ + 953 x_57_ + 971 x_58_ + 875 x_59_ + 294 x_60_ + 122 x_61_ + 792 x_62_ + 248 x_63_ + 108 x_64_ + 153 x_65_ + 170 x_66_ + 64 x_67_ + 720 x_68_ + 476 x_69_ + 705 x_70_ + 478 x_71_ + 37 x_72_ + 387 x_73_ + 960 x_74_ + 10 x_75_ + 756 x_76_ + 824 x_77_ + 784 x_78_ + 505 x_79_ + 976 x_80_ + 387 x_81_ + 91 x_82_ + 573 x_83_ + 956 x_84_ + 667 x_85_ + 424 x_86_ + 963 x_87_ + 85 x_88_ + 906 x_89_ + 896 x_90_ + 218 x_91_ + 989 x_92_ + 573 x_93_ + 253 x_94_ + 265 x_95_ + 820 x_96_ + 966 x_97_ + 934 x_98_ + 477 x_99_ + 979 x_100_ >= 12249
c6: 1 ss_6_ + 125 x_1_ + 557 x_2_ + 6 x_3_ + 16 x_4_ + 952 x_5_ + 492 x_6_ + 938 x_7_ + 949 x_8_ + 1000 x_9_ + 816 x_10_ + 495 x_11_ + 852 x_12_ + 161 x_13_ + 382 x_14_ + 570 x_15_ + 934 x_16_ + 542 x_17_ + 964 x_18_ + 350 x_19_ + 557 x_20_ + 70 x_21_ + 356 x_22_ + 79 x_23_ + 616 x_24_ + 987 x_25_ + 794 x_26_ + 337 x_27_ + 920 x_28_ + 170 x_29_ + 581 x_30_ + 622 x_31_ + 789 x_32_ + 499 x_33_ + 546 x_34_ + 997 x_35_ + 750 x_36_ + 795 x_37_ + 522 x_38_ + 42 x_39_ + 645 x_40_ + 396 x_41_ + 392 x_42_ + 544 x_43_ + 263 x_44_ + 227 x_45_ + 128 x_46_ + 973 x_47_ + 743 x_48_ + 223 x_49_ + 143 x_50_ + 612 x_51_ + 738 x_52_ + 139 x_53_ + 611 x_54_ + 588 x_55_ + 484 x_56_ + 932 x_57_ + 434 x_58_ + 61 x_59_ + 491 x_60_ + 219 x_61_ + 569 x_62_ + 866 x_63_ + 354 x_64_ + 237 x_65_ + 631 x_66_ + 83 x_67_ + 167 x_68_ + 771 x_69_ + 474 x_70_ + 795 x_71_ + 638 x_72_ + 344 x_73_ + 395 x_74_ + 670 x_75_ + 494 x_76_ + 501 x_77_ + 940 x_78_ + 735 x_79_ + 748 x_80_ + 120 x_81_ + 983 x_82_ + 430 x_83_ + 497 x_84_ + 890 x_85_ + 810 x_86_ + 588 x_87_ + 59 x_88_ + 386 x_89_ + 650 x_90_ + 35 x_91_ + 143 x_92_ + 164 x_93_ + 62 x_94_ + 720 x_95_ + 641 x_96_ + 895 x_97_ + 909 x_98_ + 829 x_99_ + 231 x_100_ >= 13143
c7: 1 ss_7_ + 794 x_1_ + 821 x_2_ + 961 x_3_ + 962 x_4_ + 242 x_5_ + 337 x_6_ + 559 x_7_ + 595 x_8_ + 576 x_9_ + 323 x_10_ + 888 x_11_ + 627 x_12_ + 634 x_13_ + 365 x_14_ + 85 x_15_ + 265 x_16_ + 204 x_17_ + 595 x_18_ + 707 x_19_ + 138 x_20_ + 131 x_21_ + 775 x_22_ + 217 x_23_ + 750 x_24_ + 776 x_25_ + 655 x_26_ + 662 x_27_ + 248 x_28_ + 321 x_29_ + 391 x_30_ + 253 x_31_ + 540 x_32_ + 118 x_33_ + 781 x_34_ + 787 x_35_ + 721 x_36_ + 833 x_37_ + 141 x_38_ + 983 x_39_ + 654 x_40_ + 675 x_41_ + 718 x_42_ + 881 x_43_ + 386 x_44_ + 229 x_45_ + 335 x_46_ + 283 x_47_ + 589 x_48_ + 945 x_49_ + 849 x_50_ + 833 x_51_ + 892 x_52_ + 509 x_53_ + 56 x_54_ + 683 x_55_ + 744 x_56_ + 588 x_57_ + 417 x_58_ + 173 x_59_ + 750 x_60_ + 55 x_61_ + 462 x_62_ + 749 x_63_ + 945 x_64_ + 969 x_65_ + 916 x_66_ + 624 x_67_ + 70 x_68_ + 973 x_69_ + 67 x_70_ + 938 x_71_ + 194 x_72_ + 667 x_73_ + 374 x_74_ + 776 x_75_ + 371 x_76_ + 404 x_77_ + 876 x_78_ + 556 x_79_ + 709 x_80_ + 293 x_81_ + 676 x_82_ + 757 x_83_ + 361 x_84_ + 355 x_85_ + 102 x_86_ + 595 x_87_ + 260 x_88_ + 299 x_89_ + 485 x_90_ + 272 x_91_ + 312 x_92_ + 271 x_93_ + 463 x_94_ + 361 x_95_ + 855 x_96_ + 24 x_97_ + 19 x_98_ + 298 x_99_ + 361 x_100_ >= 13016
c8: 1 ss_8_ + 447 x_1_ + 840 x_2_ + 413 x_3_ + 682 x_4_ + 933 x_5_ + 47 x_6_ + 649 x_7_ + 88 x_8_ + 50 x_9_ + 672 x_10_ + 171 x_11_ + 202 x_12_ + 673 x_13_ + 176 x_14_ + 811 x_15_ + 522 x_16_ + 592 x_17_ + 398 x_18_ + 987 x_19_ + 12 x_20_ + 414 x_21_ + 818 x_22_ + 654 x_23_ + 469 x_24_ + 781 x_25_ + 499 x_26_ + 216 x_27_ + 695 x_28_ + 776 x_29_ + 703 x_30_ + 260 x_31_ + 643 x_32_ + 967 x_33_ + 630 x_34_ + 555 x_35_ + 52 x_36_ + 331 x_37_ + 328 x_38_ + 206 x_39_ + 346 x_40_ + 415 x_41_ + 187 x_42_ + 255 x_43_ + 51 x_44_ + 536 x_45_ + 727 x_46_ + 113 x_47_ + 206 x_48_ + 738 x_49_ + 891 x_50_ + 435 x_51_ + 691 x_52_ + 157 x_53_ + 985 x_54_ + 49 x_55_ + 95 x_56_ + 71 x_57_ + 494 x_58_ + 702 x_59_ + 802 x_60_ + 877 x_61_ + 946 x_62_ + 736 x_63_ + 448 x_64_ + 337 x_65_ + 801 x_66_ + 306 x_67_ + 713 x_68_ + 360 x_69_ + 563 x_70_ + 397 x_71_ + 815 x_72_ + 992 x_73_ + 443 x_74_ + 365 x_75_ + 981 x_76_ + 937 x_77_ + 344 x_78_ + 895 x_79_ + 302 x_80_ + 890 x_81_ + 205 x_82_ + 977 x_83_ + 32 x_84_ + 267 x_85_ + 802 x_86_ + 747 x_87_ + 893 x_88_ + 838 x_89_ + 413 x_90_ + 271 x_91_ + 684 x_92_ + 290 x_93_ + 313 x_94_ + 471 x_95_ + 47 x_96_ + 495 x_97_ + 810 x_98_ + 84 x_99_ + 375 x_100_ >= 12693
c9: 1 ss_9_ + 399 x_1_ + 818 x_2_ + 164 x_3_ + 960 x_4_ + 365 x_5_ + 949 x_6_ + 197 x_7_ + 678 x_8_ + 500 x_9_ + 422 x_10_ + 200 x_11_ + 968 x_12_ + 379 x_13_ + 455 x_14_ + 967 x_15_ + 154 x_16_ + 240 x_17_ + 212 x_18_ + 160 x_19_ + 594 x_20_ + 365 x_21_ + 368 x_22_ + 68 x_23_ + 554 x_24_ + 319 x_25_ + 423 x_26_ + 348 x_27_ + 905 x_28_ + 562 x_29_ + 471 x_30_ + 334 x_31_ + 729 x_32_ + 886 x_33_ + 253 x_34_ + 618 x_35_ + 217 x_36_ + 725 x_37_ + 451 x_38_ + 372 x_39_ + 111 x_40_ + 205 x_41_ + 976 x_42_ + 449 x_43_ + 633 x_44_ + 240 x_45_ + 689 x_46_ + 319 x_47_ + 863 x_48_ + 630 x_49_ + 525 x_50_ + 927 x_51_ + 728 x_52_ + 915 x_53_ + 454 x_54_ + 187 x_55_ + 523 x_56_ + 599 x_57_ + 957 x_58_ + 626 x_59_ + 54 x_60_ + 220 x_61_ + 283 x_62_ + 86 x_63_ + 308 x_64_ + 786 x_65_ + 659 x_66_ + 34 x_67_ + 879 x_68_ + 227 x_69_ + 444 x_70_ + 828 x_71_ + 209 x_72_ + 378 x_73_ + 280 x_74_ + 366 x_75_ + 209 x_76_ + 623 x_77_ + 292 x_78_ + 655 x_79_ + 854 x_80_ + 14 x_81_ + 14 x_82_ + 461 x_83_ + 204 x_84_ + 339 x_85_ + 516 x_86_ + 84 x_87_ + 128 x_88_ + 309 x_89_ + 493 x_90_ + 285 x_91_ + 597 x_92_ + 250 x_93_ + 582 x_94_ + 429 x_95_ + 322 x_96_ + 883 x_97_ + 657 x_98_ + 125 x_99_ + 63 x_100_ >= 11434
c10: 1 ss_10_ + 63 x_1_ + 495 x_2_ + 314 x_3_ + 374 x_4_ + 554 x_5_ + 583 x_6_ + 675 x_7_ + 563 x_8_ + 661 x_9_ + 523 x_10_ + 946 x_11_ + 544 x_12_ + 593 x_13_ + 299 x_14_ + 898 x_15_ + 502 x_16_ + 556 x_17_ + 385 x_18_ + 105 x_19_ + 83 x_20_ + 112 x_21_ + 14 x_22_ + 291 x_23_ + 108 x_24_ + 454 x_25_ + 385 x_26_ + 337 x_27_ + 787 x_28_ + 822 x_29_ + 782 x_30_ + 81 x_31_ + 957 x_32_ + 52 x_33_ + 180 x_34_ + 28 x_35_ + 483 x_36_ + 434 x_37_ + 849 x_38_ + 520 x_39_ + 354 x_40_ + 72 x_41_ + 806 x_42_ + 97 x_43_ + 821 x_44_ + 635 x_45_ + 988 x_46_ + 542 x_47_ + 451 x_48_ + 107 x_49_ + 636 x_50_ + 284 x_51_ + 605 x_52_ + 430 x_53_ + 349 x_54_ + 519 x_55_ + 815 x_56_ + 420 x_57_ + 419 x_58_ + 335 x_59_ + 549 x_60_ + 664 x_61_ + 462 x_62_ + 751 x_63_ + 305 x_64_ + 428 x_65_ + 769 x_66_ + 554 x_67_ + 618 x_68_ + 25 x_69_ + 986 x_70_ + 400 x_71_ + 591 x_72_ + 925 x_73_ + 838 x_74_ + 361 x_75_ + 82 x_76_ + 368 x_77_ + 894 x_78_ + 458 x_79_ + 70 x_80_ + 21 x_81_ + 76 x_82_ + 664 x_83_ + 522 x_84_ + 546 x_85_ + 891 x_86_ + 202 x_87_ + 764 x_88_ + 368 x_89_ + 607 x_90_ + 38 x_91_ + 312 x_92_ + 49 x_93_ + 762 x_94_ + 731 x_95_ + 155 x_96_ + 269 x_97_ + 932 x_98_ + 359 x_99_ + 357 x_100_ >= 11700
Bounds
s_1_ <= 0
s_2_ <= 0
s_3_ <= 0
s_4_ <= 0
s_5_ <= 0
s_6_ <= 0
s_7_ <= 0
s_8_ <= 0
s_9_ <= 0
s_10_ <= 0
ss_1_ >= 0
ss_2_ >= 0
ss_3_ >= 0
ss_4_ >= 0
ss_5_ >= 0
ss_6_ >= 0
ss_7_ >= 0
ss_8_ >= 0
ss_9_ >= 0
ss_10_ >= 0
Binary
x_1_
x_2_
x_3_
x_4_
x_5_
x_6_
x_7_
x_8_
x_9_
x_10_
x_11_
x_12_
x_13_
x_14_
x_15_
x_16_
x_17_
x_18_
x_19_
x_20_
x_21_
x_22_
x_23_
x_24_
x_25_
x_26_
x_27_
x_28_
x_29_
x_30_
x_31_
x_32_
x_33_
x_34_
x_35_
x_36_
x_37_
x_38_
x_39_
x_40_
x_41_
x_42_
x_43_
x_44_
x_45_
x_46_
x_47_
x_48_
x_49_
x_50_
x_51_
x_52_
x_53_
x_54_
x_55_
x_56_
x_57_
x_58_
x_59_
x_60_
x_61_
x_62_
x_63_
x_64_
x_65_
x_66_
x_67_
x_68_
x_69_
x_70_
x_71_
x_72_
x_73_
x_74_
x_75_
x_76_
x_77_
x_78_
x_79_
x_80_
x_81_
x_82_
x_83_
x_84_
x_85_
x_86_
x_87_
x_88_
x_89_
x_90_
x_91_
x_92_
x_93_
x_94_
x_95_
x_96_
x_97_
x_98_
x_99_
x_100_
End
